lpmln2cl
Clingo executed with command:
clingo /home/apradhan/proj/fact_check_kb/out.txt 
clingo version 4.5.4
Reading from ...me/apradhan/proj/fact_check_kb/out.txt
Solving...
Answer: 1

SATISFIABLE

Models       : 1     
Calls        : 1
Time         : 0.003s (Solving: 0.00s 1st Model: 0.00s Unsat: 0.00s)
CPU Time     : 0.000s
